40
    36    24    79     9    17    31    57    52    93    12     2    45    78    43    30    76    16    52    37    38    78    21    97    27    65    85    59    43     3    32    54    86    49     3    90    62    87    92    51    80
     3     1     7     7     8     8     5     9     1     8     9     4     3     3     9     8     3     2    10    10     7     1     8    10    10     1     6     8     8     8     7     5     2     6    10     3     4     4     5     6
     0     0     0    93     0   179     6    99     0     0   129     0   270    46   311     0     0    81     0     0     0     0     0     0     0     0   184   180     0   327     0     0   156   333     0     0     0   231     0   338
